NAME : a280
COMMENT : Tour length 3298
TYPE : TOUR
DIMENSION : 280
TOUR_SECTION
1
280
2
3
279
278
4
277
276
275
274
273
272
271
16
17
18
19
20
131
130
21
128
127
126
125
30
31
32
29
28
27
26
22
25
23
24
14
13
15
12
11
10
8
7
9
6
5
260
259
258
257
256
255
252
253
208
209
210
207
212
211
214
215
216
217
218
219
220
221
222
223
224
225
226
227
228
229
230
251
250
247
245
240
241
244
243
242
239
246
231
238
237
232
233
234
235
236
249
248
254
206
205
204
203
202
201
196
195
194
197
198
199
145
146
143
144
200
142
141
148
139
138
137
136
135
134
270
269
268
267
266
140
265
264
263
262
261
133
132
129
154
155
153
156
152
151
177
176
181
180
179
178
150
149
147
193
192
191
190
189
188
187
186
185
184
182
183
162
163
164
165
166
167
168
169
102
103
104
108
110
111
112
88
83
84
85
65
64
63
62
61
60
43
42
41
40
39
38
37
36
35
34
33
124
123
122
121
120
119
157
158
159
160
175
161
174
173
106
107
105
170
171
172
101
100
99
98
97
94
95
96
93
92
91
90
109
89
81
80
79
76
75
77
78
74
73
72
71
70
67
66
86
116
115
114
113
87
82
117
118
59
44
57
58
56
55
46
45
47
48
53
52
51
50
49
54
68
69
213
1
-1
EOF